\ENCODING=ISO-8859-1
\Problem name: ilog.cplex

Maximize
 obj: 406 x(0)#0 + 445 x(1)#1 + 861 x(2)#2 + 1000 x(3)#3 + 826 x(4)#4
      + 721 x(5)#5 + 504 x(6)#6 + 515 x(7)#7 + 868 x(8)#8 + 837 x(9)#9
      + 726 x(10)#10 + 905 x(11)#11 + 349 x(12)#12 + 724 x(13)#13
      + 1154 x(14)#14 + 836 x(15)#15 + 763 x(16)#16 + 408 x(17)#17
      + 911 x(18)#18 + 687 x(19)#19 + 795 x(20)#20 + 615 x(21)#21
      + 505 x(22)#22 + 650 x(23)#23 + 424 x(24)#24 + 664 x(25)#25
      + 801 x(26)#26 + 937 x(27)#27 + 829 x(28)#28 + 581 x(29)#29
      + 692 x(30)#30 + 727 x(31)#31 + 1041 x(32)#32 + 852 x(33)#33
      + 641 x(34)#34 + 841 x(35)#35 + 847 x(36)#36 + 552 x(37)#37
      + 584 x(38)#38 + 667 x(39)#39 + 990 x(40)#40 + 885 x(41)#41
      + 874 x(42)#42 + 806 x(43)#43 + 1023 x(44)#44 + 883 x(45)#45
      + 879 x(46)#46 + 912 x(47)#47 + 420 x(48)#48 + 723 x(49)#49
      + 604 x(50)#50 + 740 x(51)#51 + 682 x(52)#52 + 1084 x(53)#53
      + 503 x(54)#54 + 740 x(55)#55 + 969 x(56)#56 + 863 x(57)#57
      + 1065 x(58)#58 + 543 x(59)#59 + 1070 x(60)#60 + 880 x(61)#61
      + 691 x(62)#62 + 782 x(63)#63 + 702 x(64)#64 + 770 x(65)#65
      + 675 x(66)#66 + 875 x(67)#67 + 874 x(68)#68 + 672 x(69)#69
      + 626 x(70)#70 + 728 x(71)#71 + 851 x(72)#72 + 458 x(73)#73
      + 920 x(74)#74 + 495 x(75)#75 + 758 x(76)#76 + 872 x(77)#77
      + 760 x(78)#78 + 909 x(79)#79 + 874 x(80)#80 + 474 x(81)#81
      + 736 x(82)#82 + 896 x(83)#83 + 859 x(84)#84 + 1007 x(85)#85
      + 652 x(86)#86 + 684 x(87)#87 + 866 x(88)#88 + 754 x(89)#89
      + 651 x(90)#90 + 790 x(91)#91 + 765 x(92)#92 + 733 x(93)#93
      + 1127 x(94)#94 + 728 x(95)#95 + 806 x(96)#96 + 986 x(97)#97
      + 1064 x(98)#98 + 743 x(99)#99 + 660 x(100)#100 + 635 x(101)#101
      + 779 x(102)#102 + 954 x(103)#103 + 1054 x(104)#104 + 625 x(105)#105
      + 616 x(106)#106 + 1051 x(107)#107 + 530 x(108)#108 + 717 x(109)#109
      + 923 x(110)#110 + 1109 x(111)#111 + 876 x(112)#112 + 924 x(113)#113
      + 650 x(114)#114 + 1180 x(115)#115 + 787 x(116)#116 + 1115 x(117)#117
      + 684 x(118)#118 + 629 x(119)#119 + 951 x(120)#120 + 768 x(121)#121
      + 856 x(122)#122 + 307 x(123)#123 + 523 x(124)#124 + 726 x(125)#125
      + 544 x(126)#126 + 820 x(127)#127 + 651 x(128)#128 + 638 x(129)#129
      + 750 x(130)#130 + 400 x(131)#131 + 946 x(132)#132 + 835 x(133)#133
      + 483 x(134)#134 + 916 x(135)#135 + 756 x(136)#136 + 1014 x(137)#137
      + 994 x(138)#138 + 1087 x(139)#139 + 881 x(140)#140 + 688 x(141)#141
      + 692 x(142)#142 + 642 x(143)#143 + 635 x(144)#144 + 648 x(145)#145
      + 480 x(146)#146 + 1099 x(147)#147 + 722 x(148)#148 + 953 x(149)#149
      + 954 x(150)#150 + 791 x(151)#151 + 418 x(152)#152 + 795 x(153)#153
      + 871 x(154)#154 + 913 x(155)#155 + 845 x(156)#156 + 713 x(157)#157
      + 898 x(158)#158 + 624 x(159)#159 + 480 x(160)#160 + 794 x(161)#161
      + 825 x(162)#162 + 767 x(163)#163 + 379 x(164)#164 + 857 x(165)#165
      + 823 x(166)#166 + 613 x(167)#167 + 524 x(168)#168 + 940 x(169)#169
      + 829 x(170)#170 + 749 x(171)#171 + 765 x(172)#172 + 574 x(173)#173
      + 1212 x(174)#174 + 595 x(175)#175 + 737 x(176)#176 + 885 x(177)#177
      + 715 x(178)#178 + 456 x(179)#179 + 1002 x(180)#180 + 725 x(181)#181
      + 970 x(182)#182 + 646 x(183)#183 + 905 x(184)#184 + 669 x(185)#185
      + 617 x(186)#186 + 835 x(187)#187 + 1162 x(188)#188 + 1083 x(189)#189
      + 386 x(190)#190 + 857 x(191)#191 + 911 x(192)#192 + 867 x(193)#193
      + 832 x(194)#194 + 1030 x(195)#195 + 865 x(196)#196 + 634 x(197)#197
      + 942 x(198)#198 + 859 x(199)#199 + 398 x(200)#200 + 577 x(201)#201
      + 821 x(202)#202 + 782 x(203)#203 + 937 x(204)#204 + 868 x(205)#205
      + 627 x(206)#206 + 562 x(207)#207 + 762 x(208)#208 + 497 x(209)#209
      + 635 x(210)#210 + 656 x(211)#211 + 1300 x(212)#212 + 986 x(213)#213
      + 448 x(214)#214 + 928 x(215)#215 + 813 x(216)#216 + 1105 x(217)#217
      + 1000 x(218)#218 + 897 x(219)#219 + 366 x(220)#220 + 572 x(221)#221
      + 491 x(222)#222 + 878 x(223)#223 + 929 x(224)#224 + 403 x(225)#225
      + 346 x(226)#226 + 525 x(227)#227 + 572 x(228)#228 + 644 x(229)#229
      + 592 x(230)#230 + 991 x(231)#231 + 980 x(232)#232 + 1044 x(233)#233
      + 926 x(234)#234 + 868 x(235)#235 + 803 x(236)#236 + 644 x(237)#237
      + 746 x(238)#238 + 854 x(239)#239 + 937 x(240)#240 + 996 x(241)#241
      + 928 x(242)#242 + 980 x(243)#243 + 648 x(244)#244 + 783 x(245)#245
      + 417 x(246)#246 + 730 x(247)#247 + 642 x(248)#248 + 971 x(249)#249
Subject To
 c1: 978 x(0)#0 + 175 x(1)#1 + 911 x(2)#2 + 495 x(3)#3 + 520 x(4)#4
     + 421 x(5)#5 + 308 x(6)#6 + 51 x(7)#7 + 928 x(8)#8 + 768 x(9)#9
     + 30 x(10)#10 + 273 x(11)#11 + 353 x(12)#12 + 5 x(13)#13 + 207 x(14)#14
     + 511 x(15)#15 + 685 x(16)#16 + 4 x(17)#17 + 500 x(18)#18 + 790 x(19)#19
     + 249 x(20)#20 + 888 x(21)#21 + 468 x(22)#22 + 770 x(23)#23 + 500 x(24)#24
     + 736 x(25)#25 + 387 x(26)#26 + 463 x(27)#27 + 431 x(28)#28 + 456 x(29)#29
     + 697 x(30)#30 + 666 x(31)#31 + 904 x(32)#32 + 607 x(33)#33 + 359 x(34)#34
     + 191 x(35)#35 + 519 x(36)#36 + 502 x(37)#37 + 418 x(38)#38 + 428 x(39)#39
     + 629 x(40)#40 + 293 x(41)#41 + 503 x(42)#42 + 224 x(43)#43 + 895 x(44)#44
     + 509 x(45)#45 + 725 x(46)#46 + 262 x(47)#47 + 119 x(48)#48 + 373 x(49)#49
     + 897 x(50)#50 + 550 x(51)#51 + 292 x(52)#52 + 381 x(53)#53 + 764 x(54)#54
     + 690 x(55)#55 + 559 x(56)#56 + 917 x(57)#57 + 996 x(58)#58 + 876 x(59)#59
     + 965 x(60)#60 + 611 x(61)#61 + 269 x(62)#62 + 256 x(63)#63 + 899 x(64)#64
     + 694 x(65)#65 + 782 x(66)#66 + 821 x(67)#67 + 389 x(68)#68 + 278 x(69)#69
     + 315 x(70)#70 + 826 x(71)#71 + 916 x(72)#72 + 272 x(73)#73 + 958 x(74)#74
     + 170 x(75)#75 + 475 x(76)#76 + 794 x(77)#77 + 660 x(78)#78 + 479 x(79)#79
     + 120 x(80)#80 + 98 x(81)#81 + 601 x(82)#82 + 720 x(83)#83 + 307 x(84)#84
     + 479 x(85)#85 + 379 x(86)#86 + 83 x(87)#87 + 88 x(88)#88 + 108 x(89)#89
     + 239 x(90)#90 + 497 x(91)#91 + 932 x(92)#92 + 344 x(93)#93 + 638 x(94)#94
     + 916 x(95)#95 + 249 x(96)#96 + 151 x(97)#97 + 541 x(98)#98 + 177 x(99)#99
     + 442 x(100)#100 + 246 x(101)#101 + 743 x(102)#102 + 893 x(103)#103
     + 653 x(104)#104 + 937 x(105)#105 + 666 x(106)#106 + 952 x(107)#107
     + 268 x(108)#108 + 476 x(109)#109 + 492 x(110)#110 + 228 x(111)#111
     + 402 x(112)#112 + 668 x(113)#113 + 140 x(114)#114 + 924 x(115)#115
     + 141 x(116)#116 + 723 x(117)#117 + 497 x(118)#118 + 701 x(119)#119
     + 527 x(120)#120 + 165 x(121)#121 + 403 x(122)#122 + 310 x(123)#123
     + 660 x(124)#124 + 238 x(125)#125 + 803 x(126)#126 + 199 x(127)#127
     + 396 x(128)#128 + 544 x(129)#129 + 723 x(130)#130 + 179 x(131)#131
     + 526 x(132)#132 + 837 x(133)#133 + 557 x(134)#134 + 484 x(135)#135
     + 625 x(136)#136 + 304 x(137)#137 + 164 x(138)#138 + 930 x(139)#139
     + 754 x(140)#140 + 644 x(141)#141 + 277 x(142)#142 + 244 x(143)#143
     + 435 x(144)#144 + 426 x(145)#145 + 4 x(146)#146 + 842 x(147)#147
     + 946 x(148)#148 + 667 x(149)#149 + 949 x(150)#150 + 272 x(151)#151
     + 541 x(152)#152 + 265 x(153)#153 + 273 x(154)#154 + 123 x(155)#155
     + 782 x(156)#156 + 582 x(157)#157 + 413 x(158)#158 + 865 x(159)#159
     + 3 x(160)#160 + 921 x(161)#161 + 985 x(162)#162 + 338 x(163)#163
     + 98 x(164)#164 + 652 x(165)#165 + 798 x(166)#166 + 201 x(167)#167
     + 839 x(168)#168 + 174 x(169)#169 + 716 x(170)#170 + 128 x(171)#171
     + 485 x(172)#172 + 250 x(173)#173 + 950 x(174)#174 + 774 x(175)#175
     + 77 x(176)#176 + 196 x(177)#177 + 175 x(178)#178 + 50 x(179)#179
     + 714 x(180)#180 + 959 x(181)#181 + 913 x(182)#182 + 268 x(183)#183
     + 177 x(184)#184 + 599 x(185)#185 + 129 x(186)#186 + 640 x(187)#187
     + 769 x(188)#188 + 295 x(189)#189 + 460 x(190)#190 + 882 x(191)#191
     + 422 x(192)#192 + 418 x(193)#193 + 943 x(194)#194 + 992 x(195)#195
     + 917 x(196)#196 + 922 x(197)#197 + 81 x(198)#198 + 850 x(199)#199
     + 454 x(200)#200 + 899 x(201)#201 + 618 x(202)#202 + 394 x(203)#203
     + 853 x(204)#204 + 948 x(205)#205 + 96 x(206)#206 + 812 x(207)#207
     + 408 x(208)#208 + 123 x(209)#209 + 205 x(210)#210 + 716 x(211)#211
     + 973 x(212)#212 + 181 x(213)#213 + 514 x(214)#214 + 833 x(215)#215
     + 475 x(216)#216 + 912 x(217)#217 + 514 x(218)#218 + 389 x(219)#219
     + 397 x(220)#220 + 233 x(221)#221 + 119 x(222)#222 + 962 x(223)#223
     + 229 x(224)#224 + 188 x(225)#225 + 245 x(226)#226 + 140 x(227)#227
     + 815 x(228)#228 + 816 x(229)#229 + 207 x(230)#230 + 985 x(231)#231
     + 624 x(232)#232 + 846 x(233)#233 + 429 x(234)#234 + 936 x(235)#235
     + 19 x(236)#236 + 796 x(237)#237 + 947 x(238)#238 + 788 x(239)#239
     + 962 x(240)#240 + 134 x(241)#241 + 72 x(242)#242 + 832 x(243)#243
     + 92 x(244)#244 + 88 x(245)#245 + 691 x(246)#246 + 159 x(247)#247
     + 699 x(248)#248 + 731 x(249)#249 <= 32308
 c2: 5 x(0)#0 + 490 x(1)#1 + 282 x(2)#2 + 885 x(3)#3 + 679 x(4)#4 + 793 x(5)#5
     + 385 x(6)#6 + 399 x(7)#7 + 802 x(8)#8 + 70 x(9)#9 + 928 x(10)#10
     + 437 x(11)#11 + 320 x(12)#12 + 132 x(13)#13 + 653 x(14)#14 + 703 x(15)#15
     + 206 x(16)#16 + 322 x(17)#17 + 749 x(18)#18 + 482 x(19)#19 + 846 x(20)#20
     + 111 x(21)#21 + 196 x(22)#22 + 174 x(23)#23 + 86 x(24)#24 + 285 x(25)#25
     + 510 x(26)#26 + 829 x(27)#27 + 794 x(28)#28 + 110 x(29)#29 + 729 x(30)#30
     + 369 x(31)#31 + 138 x(32)#32 + 191 x(33)#33 + 576 x(34)#34 + 442 x(35)#35
     + 771 x(36)#36 + 39 x(37)#37 + 840 x(38)#38 + 306 x(39)#39 + 255 x(40)#40
     + 197 x(41)#41 + 768 x(42)#42 + 521 x(43)#43 + 212 x(44)#44 + 796 x(45)#45
     + 835 x(46)#46 + 175 x(47)#47 + 269 x(48)#48 + 712 x(49)#49 + 421 x(50)#50
     + 165 x(51)#51 + 250 x(52)#52 + 470 x(53)#53 + 23 x(54)#54 + 506 x(55)#55
     + 752 x(56)#56 + 21 x(57)#57 + 739 x(58)#58 + 263 x(59)#59 + 824 x(60)#60
     + 830 x(61)#61 + 206 x(62)#62 + 921 x(63)#63 + 249 x(64)#64 + 564 x(65)#65
     + 40 x(66)#66 + 729 x(67)#67 + 445 x(68)#68 + 571 x(69)#69 + 4 x(70)#70
     + 181 x(71)#71 + 44 x(72)#72 + 67 x(73)#73 + 848 x(74)#74 + 973 x(75)#75
     + 322 x(76)#76 + 689 x(77)#77 + 620 x(78)#78 + 517 x(79)#79 + 433 x(80)#80
     + 858 x(81)#81 + 642 x(82)#82 + 102 x(83)#83 + 567 x(84)#84 + 455 x(85)#85
     + 578 x(86)#86 + 179 x(87)#87 + 909 x(88)#88 + 646 x(89)#89 + 363 x(90)#90
     + 107 x(91)#91 + 125 x(92)#92 + 366 x(93)#93 + 688 x(94)#94 + 35 x(95)#95
     + 401 x(96)#96 + 809 x(97)#97 + 504 x(98)#98 + 505 x(99)#99
     + 163 x(100)#100 + 775 x(101)#101 + 668 x(102)#102 + 81 x(103)#103
     + 800 x(104)#104 + 278 x(105)#105 + 286 x(106)#106 + 864 x(107)#107
     + 435 x(108)#108 + 268 x(109)#109 + 911 x(110)#110 + 770 x(111)#111
     + 779 x(112)#112 + 872 x(113)#113 + 397 x(114)#114 + 788 x(115)#115
     + 244 x(116)#116 + 939 x(117)#117 + 613 x(118)#118 + 256 x(119)#119
     + 822 x(120)#120 + 290 x(121)#121 + 270 x(122)#122 + 19 x(123)#123
     + 456 x(124)#124 + 584 x(125)#125 + 193 x(126)#126 + 912 x(127)#127
     + 691 x(128)#128 + 949 x(129)#129 + 570 x(130)#130 + 931 x(131)#131
     + 966 x(132)#132 + 474 x(133)#133 + 152 x(134)#134 + 613 x(135)#135
     + 492 x(136)#136 + 792 x(137)#137 + 508 x(138)#138 + 667 x(139)#139
     + 751 x(140)#140 + 963 x(141)#141 + 836 x(142)#142 + 989 x(143)#143
     + 651 x(144)#144 + 225 x(145)#145 + 740 x(146)#146 + 583 x(147)#147
     + 450 x(148)#148 + 234 x(149)#149 + 176 x(150)#150 + 353 x(151)#151
     + 323 x(152)#152 + 743 x(153)#153 + 188 x(154)#154 + 823 x(155)#155
     + 458 x(156)#156 + 483 x(157)#157 + 656 x(158)#158 + 1000 x(159)#159
     + 710 x(160)#160 + 138 x(161)#161 + 445 x(162)#162 + 334 x(163)#163
     + 309 x(164)#164 + 3 x(165)#165 + 625 x(166)#166 + 634 x(167)#167
     + 48 x(168)#168 + 695 x(169)#169 + 545 x(170)#170 + 325 x(171)#171
     + 349 x(172)#172 + 183 x(173)#173 + 675 x(174)#174 + 319 x(175)#175
     + 888 x(176)#176 + 751 x(177)#177 + 33 x(178)#178 + 16 x(179)#179
     + 929 x(180)#180 + 164 x(181)#181 + 932 x(182)#182 + 407 x(183)#183
     + 972 x(184)#184 + 390 x(185)#185 + 150 x(186)#186 + 742 x(187)#187
     + 883 x(188)#188 + 342 x(189)#189 + 238 x(190)#190 + 833 x(191)#191
     + 315 x(192)#192 + 887 x(193)#193 + 945 x(194)#194 + 211 x(195)#195
     + 761 x(196)#196 + 140 x(197)#197 + 317 x(198)#198 + 855 x(199)#199
     + 427 x(200)#200 + 668 x(201)#201 + 198 x(202)#202 + 111 x(203)#203
     + 422 x(204)#204 + 312 x(205)#205 + 700 x(206)#206 + 151 x(207)#207
     + 363 x(208)#208 + 336 x(209)#209 + 474 x(210)#210 + 550 x(211)#211
     + 840 x(212)#212 + 761 x(213)#213 + 536 x(214)#214 + 834 x(215)#215
     + 592 x(216)#216 + 672 x(217)#217 + 259 x(218)#218 + 936 x(219)#219
     + 130 x(220)#220 + 418 x(221)#221 + 785 x(222)#222 + 198 x(223)#223
     + 858 x(224)#224 + 995 x(225)#225 + 119 x(226)#226 + 225 x(227)#227
     + 538 x(228)#228 + 171 x(229)#229 + 542 x(230)#230 + 237 x(231)#231
     + 550 x(232)#232 + 983 x(233)#233 + 873 x(234)#234 + 768 x(235)#235
     + 578 x(236)#236 + 941 x(237)#237 + 336 x(238)#238 + 429 x(239)#239
     + 676 x(240)#240 + 766 x(241)#241 + 801 x(242)#242 + 282 x(243)#243
     + 689 x(244)#244 + 265 x(245)#245 + 563 x(246)#246 + 904 x(247)#247
     + 272 x(248)#248 + 459 x(249)#249 <= 31356
 c3: 459 x(0)#0 + 966 x(1)#1 + 712 x(2)#2 + 944 x(3)#3 + 835 x(4)#4
     + 428 x(5)#5 + 955 x(6)#6 + 695 x(7)#7 + 157 x(8)#8 + 672 x(9)#9
     + 735 x(10)#10 + 825 x(11)#11 + 371 x(12)#12 + 523 x(13)#13 + 905 x(14)#14
     + 505 x(15)#15 + 516 x(16)#16 + 440 x(17)#17 + 768 x(18)#18 + 176 x(19)#19
     + 229 x(20)#20 + 882 x(21)#21 + 690 x(22)#22 + 415 x(23)#23 + 590 x(24)#24
     + 11 x(25)#25 + 393 x(26)#26 + 428 x(27)#27 + 815 x(28)#28 + 604 x(29)#29
     + 595 x(30)#30 + 144 x(31)#31 + 998 x(32)#32 + 559 x(33)#33 + 325 x(34)#34
     + 822 x(35)#35 + 379 x(36)#36 + 181 x(37)#37 + 485 x(38)#38 + 276 x(39)#39
     + 789 x(40)#40 + 321 x(41)#41 + 330 x(42)#42 + 343 x(43)#43 + 796 x(44)#44
     + 9 x(45)#45 + 707 x(46)#46 + 456 x(47)#47 + 678 x(48)#48 + 208 x(49)#49
     + 361 x(50)#50 + 328 x(51)#51 + 949 x(52)#52 + 557 x(53)#53 + 302 x(54)#54
     + 253 x(55)#55 + 487 x(56)#56 + 401 x(57)#57 + 755 x(58)#58 + 209 x(59)#59
     + 476 x(60)#60 + 771 x(61)#61 + 411 x(62)#62 + 15 x(63)#63 + 429 x(64)#64
     + 76 x(65)#65 + 240 x(66)#66 + 773 x(67)#67 + 329 x(68)#68 + 593 x(69)#69
     + 825 x(70)#70 + 616 x(71)#71 + 814 x(72)#72 + 35 x(73)#73 + 176 x(74)#74
     + 171 x(75)#75 + 801 x(76)#76 + 544 x(77)#77 + 437 x(78)#78 + 957 x(79)#79
     + 215 x(80)#80 + 248 x(81)#81 + 69 x(82)#82 + 917 x(83)#83 + 287 x(84)#84
     + 751 x(85)#85 + 136 x(86)#86 + 838 x(87)#87 + 982 x(88)#88 + 589 x(89)#89
     + 453 x(90)#90 + 546 x(91)#91 + 256 x(92)#92 + 495 x(93)#93 + 830 x(94)#94
     + 952 x(95)#95 + 910 x(96)#96 + 116 x(97)#97 + 147 x(98)#98 + 190 x(99)#99
     + 589 x(100)#100 + 119 x(101)#101 + 615 x(102)#102 + 492 x(103)#103
     + 872 x(104)#104 + 919 x(105)#105 + 780 x(106)#106 + 966 x(107)#107
     + 755 x(108)#108 + 992 x(109)#109 + 71 x(110)#110 + 648 x(111)#111
     + 55 x(112)#112 + 743 x(113)#113 + 556 x(114)#114 + 974 x(115)#115
     + 956 x(116)#116 + 311 x(117)#117 + 848 x(118)#118 + 627 x(119)#119
     + 329 x(120)#120 + 807 x(121)#121 + 280 x(122)#122 + 350 x(123)#123
     + 253 x(124)#124 + 184 x(125)#125 + 228 x(126)#126 + 963 x(127)#127
     + 907 x(128)#128 + 607 x(129)#129 + 611 x(130)#130 + 439 x(131)#131
     + 215 x(132)#132 + 535 x(133)#133 + 758 x(134)#134 + 505 x(135)#135
     + 908 x(136)#136 + 404 x(137)#137 + 756 x(138)#138 + 664 x(139)#139
     + 481 x(140)#140 + 767 x(141)#141 + 617 x(142)#142 + 833 x(143)#143
     + 198 x(144)#144 + 205 x(145)#145 + 525 x(146)#146 + 973 x(147)#147
     + 890 x(148)#148 + 638 x(149)#149 + 821 x(150)#150 + 132 x(151)#151
     + 162 x(152)#152 + 294 x(153)#153 + 444 x(154)#154 + 508 x(155)#155
     + 785 x(156)#156 + 261 x(157)#157 + 711 x(158)#158 + 344 x(159)#159
     + 187 x(160)#160 + 950 x(161)#161 + 315 x(162)#162 + 865 x(163)#163
     + 720 x(164)#164 + 866 x(165)#165 + 655 x(166)#166 + 77 x(167)#167
     + 704 x(168)#168 + 931 x(169)#169 + 601 x(170)#170 + 641 x(171)#171
     + 794 x(172)#172 + 304 x(173)#173 + 810 x(174)#174 + 640 x(175)#175
     + 181 x(176)#176 + 851 x(177)#177 + 401 x(178)#178 + 665 x(179)#179
     + 179 x(180)#180 + 147 x(181)#181 + 240 x(182)#182 + 993 x(183)#183
     + 416 x(184)#184 + 850 x(185)#185 + 264 x(186)#186 + 422 x(187)#187
     + 862 x(188)#188 + 934 x(189)#189 + 181 x(190)#190 + 55 x(191)#191
     + 590 x(192)#192 + 177 x(193)#193 + 585 x(194)#194 + 324 x(195)#195
     + 303 x(196)#196 + 920 x(197)#197 + 970 x(198)#198 + 297 x(199)#199
     + 814 x(200)#200 + 267 x(201)#201 + 995 x(202)#202 + 481 x(203)#203
     + 665 x(204)#204 + 120 x(205)#205 + 419 x(206)#206 + 556 x(207)#207
     + 915 x(208)#208 + 832 x(209)#209 + 415 x(210)#210 + 705 x(211)#211
     + 670 x(212)#212 + 575 x(213)#213 + 248 x(214)#214 + 674 x(215)#215
     + 796 x(216)#216 + 748 x(217)#217 + 941 x(218)#218 + 394 x(219)#219
     + 180 x(220)#220 + 500 x(221)#221 + 502 x(222)#222 + 879 x(223)#223
     + 565 x(224)#224 + 23 x(225)#225 + 630 x(226)#226 + 880 x(227)#227
     + 155 x(228)#228 + 823 x(229)#229 + 630 x(230)#230 + 309 x(231)#231
     + 165 x(232)#232 + 884 x(233)#233 + 425 x(234)#234 + 280 x(235)#235
     + 747 x(236)#236 + 985 x(237)#237 + 475 x(238)#238 + 431 x(239)#239
     + 616 x(240)#240 + 932 x(241)#241 + 752 x(242)#242 + 798 x(243)#243
     + 827 x(244)#244 + 673 x(245)#245 + 22 x(246)#246 + 999 x(247)#247
     + 148 x(248)#248 + 427 x(249)#249 <= 34001
 c4: 90 x(0)#0 + 10 x(1)#1 + 121 x(2)#2 + 967 x(3)#3 + 572 x(4)#4 + 194 x(5)#5
     + 94 x(6)#6 + 856 x(7)#7 + 305 x(8)#8 + 37 x(9)#9 + 623 x(10)#10
     + 721 x(11)#11 + 60 x(12)#12 + 385 x(13)#13 + 989 x(14)#14 + 191 x(15)#15
     + 796 x(16)#16 + 110 x(17)#17 + 689 x(18)#18 + 451 x(19)#19 + 971 x(20)#20
     + 936 x(21)#21 + 36 x(22)#22 + 104 x(23)#23 + 172 x(24)#24 + 321 x(25)#25
     + 642 x(26)#26 + 977 x(27)#27 + 2 x(28)#28 + 688 x(29)#29 + 626 x(30)#30
     + 728 x(31)#31 + 905 x(32)#32 + 596 x(33)#33 + 62 x(34)#34 + 197 x(35)#35
     + 317 x(36)#36 + 503 x(37)#37 + 235 x(38)#38 + 677 x(39)#39 + 580 x(40)#40
     + 810 x(41)#41 + 968 x(42)#42 + 78 x(43)#43 + 948 x(44)#44 + 852 x(45)#45
     + 822 x(46)#46 + 227 x(47)#47 + 428 x(48)#48 + 483 x(49)#49 + 60 x(50)#50
     + 389 x(51)#51 + 467 x(52)#52 + 870 x(53)#53 + 303 x(54)#54 + 700 x(55)#55
     + 619 x(56)#56 + 160 x(57)#57 + 723 x(58)#58 + 576 x(59)#59 + 892 x(60)#60
     + 981 x(61)#61 + 917 x(62)#62 + 658 x(63)#63 + 992 x(64)#64 + 385 x(65)#65
     + 764 x(66)#66 + 304 x(67)#67 + 626 x(68)#68 + 901 x(69)#69 + 883 x(70)#70
     + 493 x(71)#71 + 301 x(72)#72 + 961 x(73)#73 + 983 x(74)#74 + 837 x(75)#75
     + 245 x(76)#76 + 704 x(77)#77 + 809 x(78)#78 + 433 x(79)#79 + 984 x(80)#80
     + 422 x(81)#81 + 579 x(82)#82 + 687 x(83)#83 + 251 x(84)#84 + 627 x(85)#85
     + 546 x(86)#86 + 775 x(87)#87 + 612 x(88)#88 + 412 x(89)#89 + 671 x(90)#90
     + 109 x(91)#91 + 123 x(92)#92 + 318 x(93)#93 + 549 x(94)#94 + 857 x(95)#95
     + 607 x(96)#96 + 889 x(97)#97 + 978 x(98)#98 + 952 x(99)#99
     + 418 x(100)#100 + 78 x(101)#101 + 238 x(102)#102 + 872 x(103)#103
     + 732 x(104)#104 + 689 x(105)#105 + 77 x(106)#106 + 31 x(107)#107
     + 401 x(108)#108 + 988 x(109)#109 + 860 x(110)#110 + 952 x(111)#111
     + 241 x(112)#112 + 929 x(113)#113 + 494 x(114)#114 + 786 x(115)#115
     + 106 x(116)#116 + 957 x(117)#117 + 35 x(118)#118 + 785 x(119)#119
     + 856 x(120)#120 + 149 x(121)#121 + 541 x(122)#122 + 233 x(123)#123
     + 160 x(124)#124 + 890 x(125)#125 + 122 x(126)#126 + 438 x(127)#127
     + 120 x(128)#128 + 365 x(129)#129 + 608 x(130)#130 + 356 x(131)#131
     + 646 x(132)#132 + 312 x(133)#133 + 804 x(134)#134 + 623 x(135)#135
     + 715 x(136)#136 + 937 x(137)#137 + 881 x(138)#138 + 474 x(139)#139
     + 357 x(140)#140 + 112 x(141)#141 + 497 x(142)#142 + 329 x(143)#143
     + 927 x(144)#144 + 211 x(145)#145 + 437 x(146)#146 + 677 x(147)#147
     + 81 x(148)#148 + 206 x(149)#149 + 580 x(150)#150 + 819 x(151)#151
     + 399 x(152)#152 + 420 x(153)#153 + 541 x(154)#154 + 387 x(155)#155
     + 963 x(156)#156 + 555 x(157)#157 + 77 x(158)#158 + 144 x(159)#159
     + 777 x(160)#160 + 739 x(161)#161 + 319 x(162)#162 + 517 x(163)#163
     + 222 x(164)#164 + 781 x(165)#165 + 694 x(166)#166 + 186 x(167)#167
     + 40 x(168)#168 + 859 x(169)#169 + 483 x(170)#170 + 769 x(171)#171
     + 860 x(172)#172 + 611 x(173)#173 + 543 x(174)#174 + 507 x(175)#175
     + 577 x(176)#176 + 451 x(177)#177 + 264 x(178)#178 + 601 x(179)#179
     + 24 x(180)#180 + 308 x(181)#181 + 524 x(182)#182 + 668 x(183)#183
     + 704 x(184)#184 + 783 x(185)#185 + 871 x(186)#186 + 331 x(187)#187
     + 523 x(188)#188 + 760 x(189)#189 + 388 x(190)#190 + 120 x(191)#191
     + 475 x(192)#192 + 684 x(193)#193 + 389 x(194)#194 + 450 x(195)#195
     + 90 x(196)#196 + 715 x(197)#197 + 323 x(198)#198 + 168 x(199)#199
     + 75 x(200)#200 + 117 x(201)#201 + 659 x(202)#202 + 298 x(203)#203
     + 612 x(204)#204 + 79 x(205)#205 + 663 x(206)#206 + 367 x(207)#207
     + 680 x(208)#208 + 579 x(209)#209 + 520 x(210)#210 + 117 x(211)#211
     + 742 x(212)#212 + 560 x(213)#213 + 356 x(214)#214 + 525 x(215)#215
     + 580 x(216)#216 + 703 x(217)#217 + 883 x(218)#218 + 842 x(219)#219
     + 25 x(220)#220 + 544 x(221)#221 + 105 x(222)#222 + 214 x(223)#223
     + 221 x(224)#224 + 384 x(225)#225 + 92 x(226)#226 + 491 x(227)#227
     + 457 x(228)#228 + 707 x(229)#229 + 410 x(230)#230 + 345 x(231)#231
     + 838 x(232)#232 + 585 x(233)#233 + 642 x(234)#234 + 229 x(235)#235
     + 118 x(236)#236 + 2 x(237)#237 + 823 x(238)#238 + 420 x(239)#239
     + 300 x(240)#240 + 729 x(241)#241 + 668 x(242)#242 + 802 x(243)#243
     + 309 x(244)#244 + 387 x(245)#245 + 330 x(246)#246 + 213 x(247)#247
     + 251 x(248)#248 + 459 x(249)#249 <= 31702
 c5: 154 x(0)#0 + 480 x(1)#1 + 757 x(2)#2 + 309 x(3)#3 + 883 x(4)#4
     + 136 x(5)#5 + 440 x(6)#6 + 462 x(7)#7 + 155 x(8)#8 + 993 x(9)#9
     + 28 x(10)#10 + 709 x(11)#11 + 518 x(12)#12 + 126 x(13)#13 + 759 x(14)#14
     + 341 x(15)#15 + 815 x(16)#16 + 282 x(17)#17 + 610 x(18)#18 + 462 x(19)#19
     + 65 x(20)#20 + 114 x(21)#21 + 149 x(22)#22 + 551 x(23)#23 + 163 x(24)#24
     + 319 x(25)#25 + 58 x(26)#26 + 267 x(27)#27 + 544 x(28)#28 + 796 x(29)#29
     + 588 x(30)#30 + 237 x(31)#31 + 179 x(32)#32 + 124 x(33)#33 + 430 x(34)#34
     + 277 x(35)#35 + 914 x(36)#36 + 72 x(37)#37 + 132 x(38)#38 + 520 x(39)#39
     + 226 x(40)#40 + 859 x(41)#41 + 771 x(42)#42 + 802 x(43)#43 + 276 x(44)#44
     + 390 x(45)#45 + 846 x(46)#46 + 979 x(47)#47 + 553 x(48)#48 + 963 x(49)#49
     + 583 x(50)#50 + 593 x(51)#51 + 731 x(52)#52 + 834 x(53)#53 + 354 x(54)#54
     + 363 x(55)#55 + 384 x(56)#56 + 812 x(57)#57 + 592 x(58)#58 + 577 x(59)#59
     + 397 x(60)#60 + 435 x(61)#61 + 40 x(62)#62 + 964 x(63)#63 + 446 x(64)#64
     + 902 x(65)#65 + 326 x(66)#66 + 337 x(67)#67 + 695 x(68)#68 + 302 x(69)#69
     + 249 x(70)#70 + 669 x(71)#71 + 409 x(72)#72 + 10 x(73)#73 + 917 x(74)#74
     + 120 x(75)#75 + 389 x(76)#76 + 650 x(77)#77 + 293 x(78)#78 + 529 x(79)#79
     + 922 x(80)#80 + 557 x(81)#81 + 798 x(82)#82 + 964 x(83)#83 + 543 x(84)#84
     + 827 x(85)#85 + 620 x(86)#86 + 766 x(87)#87 + 392 x(88)#88 + 514 x(89)#89
     + 5 x(90)#90 + 749 x(91)#91 + 361 x(92)#92 + 458 x(93)#93 + 471 x(94)#94
     + 80 x(95)#95 + 595 x(96)#96 + 495 x(97)#97 + 914 x(98)#98 + 898 x(99)#99
     + 864 x(100)#100 + 345 x(101)#101 + 86 x(102)#102 + 693 x(103)#103
     + 728 x(104)#104 + 221 x(105)#105 + 195 x(106)#106 + 160 x(107)#107
     + 98 x(108)#108 + 585 x(109)#109 + 634 x(110)#110 + 768 x(111)#111
     + 674 x(112)#112 + 906 x(113)#113 + 278 x(114)#114 + 664 x(115)#115
     + 453 x(116)#116 + 814 x(117)#117 + 602 x(118)#118 + 32 x(119)#119
     + 708 x(120)#120 + 137 x(121)#121 + 426 x(122)#122 + 111 x(123)#123
     + 516 x(124)#124 + 663 x(125)#125 + 625 x(126)#126 + 696 x(127)#127
     + 722 x(128)#128 + 670 x(129)#129 + 5 x(130)#130 + 30 x(131)#131
     + 295 x(132)#132 + 585 x(133)#133 + 52 x(134)#134 + 887 x(135)#135
     + 200 x(136)#136 + 212 x(137)#137 + 828 x(138)#138 + 778 x(139)#139
     + 250 x(140)#140 + 508 x(141)#141 + 822 x(142)#142 + 216 x(143)#143
     + 479 x(144)#144 + 865 x(145)#145 + 545 x(146)#146 + 443 x(147)#147
     + 323 x(148)#148 + 610 x(149)#149 + 765 x(150)#150 + 481 x(151)#151
     + 309 x(152)#152 + 247 x(153)#153 + 710 x(154)#154 + 815 x(155)#155
     + 942 x(156)#156 + 949 x(157)#157 + 893 x(158)#158 + 206 x(159)#159
     + 612 x(160)#160 + 908 x(161)#161 + 365 x(162)#162 + 630 x(163)#163
     + 235 x(164)#164 + 807 x(165)#165 + 738 x(166)#166 + 293 x(167)#167
     + 760 x(168)#168 + 560 x(169)#169 + 842 x(170)#170 + 957 x(171)#171
     + 765 x(172)#172 + 970 x(173)#173 + 920 x(174)#174 + 601 x(175)#175
     + 3 x(176)#176 + 611 x(177)#177 + 613 x(178)#178 + 110 x(179)#179
     + 786 x(180)#180 + 736 x(181)#181 + 757 x(182)#182 + 569 x(183)#183
     + 90 x(184)#184 + 662 x(185)#185 + 746 x(186)#186 + 605 x(187)#187
     + 632 x(188)#188 + 913 x(189)#189 + 547 x(190)#190 + 441 x(191)#191
     + 271 x(192)#192 + 8 x(193)#193 + 27 x(194)#194 + 722 x(195)#195
     + 4 x(196)#196 + 267 x(197)#197 + 849 x(198)#198 + 389 x(199)#199
     + 32 x(200)#200 + 857 x(201)#201 + 219 x(202)#202 + 507 x(203)#203
     + 99 x(204)#204 + 851 x(205)#205 + 873 x(206)#206 + 627 x(207)#207
     + 828 x(208)#208 + 104 x(209)#209 + 530 x(210)#210 + 369 x(211)#211
     + 779 x(212)#212 + 415 x(213)#213 + 106 x(214)#214 + 568 x(215)#215
     + 403 x(216)#216 + 982 x(217)#217 + 150 x(218)#218 + 352 x(219)#219
     + 809 x(220)#220 + 558 x(221)#221 + 437 x(222)#222 + 208 x(223)#223
     + 629 x(224)#224 + 90 x(225)#225 + 518 x(226)#226 + 386 x(227)#227
     + 691 x(228)#228 + 83 x(229)#229 + 201 x(230)#230 + 633 x(231)#231
     + 328 x(232)#232 + 246 x(233)#233 + 744 x(234)#234 + 827 x(235)#235
     + 548 x(236)#236 + 272 x(237)#237 + 273 x(238)#238 + 206 x(239)#239
     + 228 x(240)#240 + 550 x(241)#241 + 842 x(242)#242 + 980 x(243)#243
     + 381 x(244)#244 + 431 x(245)#245 + 451 x(246)#246 + 422 x(247)#247
     + 56 x(248)#248 + 894 x(249)#249 <= 31408
Bounds
 0 <= x(0)#0 <= 1
 0 <= x(1)#1 <= 1
 0 <= x(2)#2 <= 1
 0 <= x(3)#3 <= 1
 0 <= x(4)#4 <= 1
 0 <= x(5)#5 <= 1
 0 <= x(6)#6 <= 1
 0 <= x(7)#7 <= 1
 0 <= x(8)#8 <= 1
 0 <= x(9)#9 <= 1
 0 <= x(10)#10 <= 1
 0 <= x(11)#11 <= 1
 0 <= x(12)#12 <= 1
 0 <= x(13)#13 <= 1
 0 <= x(14)#14 <= 1
 0 <= x(15)#15 <= 1
 0 <= x(16)#16 <= 1
 0 <= x(17)#17 <= 1
 0 <= x(18)#18 <= 1
 0 <= x(19)#19 <= 1
 0 <= x(20)#20 <= 1
 0 <= x(21)#21 <= 1
 0 <= x(22)#22 <= 1
 0 <= x(23)#23 <= 1
 0 <= x(24)#24 <= 1
 0 <= x(25)#25 <= 1
 0 <= x(26)#26 <= 1
 0 <= x(27)#27 <= 1
 0 <= x(28)#28 <= 1
 0 <= x(29)#29 <= 1
 0 <= x(30)#30 <= 1
 0 <= x(31)#31 <= 1
 0 <= x(32)#32 <= 1
 0 <= x(33)#33 <= 1
 0 <= x(34)#34 <= 1
 0 <= x(35)#35 <= 1
 0 <= x(36)#36 <= 1
 0 <= x(37)#37 <= 1
 0 <= x(38)#38 <= 1
 0 <= x(39)#39 <= 1
 0 <= x(40)#40 <= 1
 0 <= x(41)#41 <= 1
 0 <= x(42)#42 <= 1
 0 <= x(43)#43 <= 1
 0 <= x(44)#44 <= 1
 0 <= x(45)#45 <= 1
 0 <= x(46)#46 <= 1
 0 <= x(47)#47 <= 1
 0 <= x(48)#48 <= 1
 0 <= x(49)#49 <= 1
 0 <= x(50)#50 <= 1
 0 <= x(51)#51 <= 1
 0 <= x(52)#52 <= 1
 0 <= x(53)#53 <= 1
 0 <= x(54)#54 <= 1
 0 <= x(55)#55 <= 1
 0 <= x(56)#56 <= 1
 0 <= x(57)#57 <= 1
 0 <= x(58)#58 <= 1
 0 <= x(59)#59 <= 1
 0 <= x(60)#60 <= 1
 0 <= x(61)#61 <= 1
 0 <= x(62)#62 <= 1
 0 <= x(63)#63 <= 1
 0 <= x(64)#64 <= 1
 0 <= x(65)#65 <= 1
 0 <= x(66)#66 <= 1
 0 <= x(67)#67 <= 1
 0 <= x(68)#68 <= 1
 0 <= x(69)#69 <= 1
 0 <= x(70)#70 <= 1
 0 <= x(71)#71 <= 1
 0 <= x(72)#72 <= 1
 0 <= x(73)#73 <= 1
 0 <= x(74)#74 <= 1
 0 <= x(75)#75 <= 1
 0 <= x(76)#76 <= 1
 0 <= x(77)#77 <= 1
 0 <= x(78)#78 <= 1
 0 <= x(79)#79 <= 1
 0 <= x(80)#80 <= 1
 0 <= x(81)#81 <= 1
 0 <= x(82)#82 <= 1
 0 <= x(83)#83 <= 1
 0 <= x(84)#84 <= 1
 0 <= x(85)#85 <= 1
 0 <= x(86)#86 <= 1
 0 <= x(87)#87 <= 1
 0 <= x(88)#88 <= 1
 0 <= x(89)#89 <= 1
 0 <= x(90)#90 <= 1
 0 <= x(91)#91 <= 1
 0 <= x(92)#92 <= 1
 0 <= x(93)#93 <= 1
 0 <= x(94)#94 <= 1
 0 <= x(95)#95 <= 1
 0 <= x(96)#96 <= 1
 0 <= x(97)#97 <= 1
 0 <= x(98)#98 <= 1
 0 <= x(99)#99 <= 1
 0 <= x(100)#100 <= 1
 0 <= x(101)#101 <= 1
 0 <= x(102)#102 <= 1
 0 <= x(103)#103 <= 1
 0 <= x(104)#104 <= 1
 0 <= x(105)#105 <= 1
 0 <= x(106)#106 <= 1
 0 <= x(107)#107 <= 1
 0 <= x(108)#108 <= 1
 0 <= x(109)#109 <= 1
 0 <= x(110)#110 <= 1
 0 <= x(111)#111 <= 1
 0 <= x(112)#112 <= 1
 0 <= x(113)#113 <= 1
 0 <= x(114)#114 <= 1
 0 <= x(115)#115 <= 1
 0 <= x(116)#116 <= 1
 0 <= x(117)#117 <= 1
 0 <= x(118)#118 <= 1
 0 <= x(119)#119 <= 1
 0 <= x(120)#120 <= 1
 0 <= x(121)#121 <= 1
 0 <= x(122)#122 <= 1
 0 <= x(123)#123 <= 1
 0 <= x(124)#124 <= 1
 0 <= x(125)#125 <= 1
 0 <= x(126)#126 <= 1
 0 <= x(127)#127 <= 1
 0 <= x(128)#128 <= 1
 0 <= x(129)#129 <= 1
 0 <= x(130)#130 <= 1
 0 <= x(131)#131 <= 1
 0 <= x(132)#132 <= 1
 0 <= x(133)#133 <= 1
 0 <= x(134)#134 <= 1
 0 <= x(135)#135 <= 1
 0 <= x(136)#136 <= 1
 0 <= x(137)#137 <= 1
 0 <= x(138)#138 <= 1
 0 <= x(139)#139 <= 1
 0 <= x(140)#140 <= 1
 0 <= x(141)#141 <= 1
 0 <= x(142)#142 <= 1
 0 <= x(143)#143 <= 1
 0 <= x(144)#144 <= 1
 0 <= x(145)#145 <= 1
 0 <= x(146)#146 <= 1
 0 <= x(147)#147 <= 1
 0 <= x(148)#148 <= 1
 0 <= x(149)#149 <= 1
 0 <= x(150)#150 <= 1
 0 <= x(151)#151 <= 1
 0 <= x(152)#152 <= 1
 0 <= x(153)#153 <= 1
 0 <= x(154)#154 <= 1
 0 <= x(155)#155 <= 1
 0 <= x(156)#156 <= 1
 0 <= x(157)#157 <= 1
 0 <= x(158)#158 <= 1
 0 <= x(159)#159 <= 1
 0 <= x(160)#160 <= 1
 0 <= x(161)#161 <= 1
 0 <= x(162)#162 <= 1
 0 <= x(163)#163 <= 1
 0 <= x(164)#164 <= 1
 0 <= x(165)#165 <= 1
 0 <= x(166)#166 <= 1
 0 <= x(167)#167 <= 1
 0 <= x(168)#168 <= 1
 0 <= x(169)#169 <= 1
 0 <= x(170)#170 <= 1
 0 <= x(171)#171 <= 1
 0 <= x(172)#172 <= 1
 0 <= x(173)#173 <= 1
 0 <= x(174)#174 <= 1
 0 <= x(175)#175 <= 1
 0 <= x(176)#176 <= 1
 0 <= x(177)#177 <= 1
 0 <= x(178)#178 <= 1
 0 <= x(179)#179 <= 1
 0 <= x(180)#180 <= 1
 0 <= x(181)#181 <= 1
 0 <= x(182)#182 <= 1
 0 <= x(183)#183 <= 1
 0 <= x(184)#184 <= 1
 0 <= x(185)#185 <= 1
 0 <= x(186)#186 <= 1
 0 <= x(187)#187 <= 1
 0 <= x(188)#188 <= 1
 0 <= x(189)#189 <= 1
 0 <= x(190)#190 <= 1
 0 <= x(191)#191 <= 1
 0 <= x(192)#192 <= 1
 0 <= x(193)#193 <= 1
 0 <= x(194)#194 <= 1
 0 <= x(195)#195 <= 1
 0 <= x(196)#196 <= 1
 0 <= x(197)#197 <= 1
 0 <= x(198)#198 <= 1
 0 <= x(199)#199 <= 1
 0 <= x(200)#200 <= 1
 0 <= x(201)#201 <= 1
 0 <= x(202)#202 <= 1
 0 <= x(203)#203 <= 1
 0 <= x(204)#204 <= 1
 0 <= x(205)#205 <= 1
 0 <= x(206)#206 <= 1
 0 <= x(207)#207 <= 1
 0 <= x(208)#208 <= 1
 0 <= x(209)#209 <= 1
 0 <= x(210)#210 <= 1
 0 <= x(211)#211 <= 1
 0 <= x(212)#212 <= 1
 0 <= x(213)#213 <= 1
 0 <= x(214)#214 <= 1
 0 <= x(215)#215 <= 1
 0 <= x(216)#216 <= 1
 0 <= x(217)#217 <= 1
 0 <= x(218)#218 <= 1
 0 <= x(219)#219 <= 1
 0 <= x(220)#220 <= 1
 0 <= x(221)#221 <= 1
 0 <= x(222)#222 <= 1
 0 <= x(223)#223 <= 1
 0 <= x(224)#224 <= 1
 0 <= x(225)#225 <= 1
 0 <= x(226)#226 <= 1
 0 <= x(227)#227 <= 1
 0 <= x(228)#228 <= 1
 0 <= x(229)#229 <= 1
 0 <= x(230)#230 <= 1
 0 <= x(231)#231 <= 1
 0 <= x(232)#232 <= 1
 0 <= x(233)#233 <= 1
 0 <= x(234)#234 <= 1
 0 <= x(235)#235 <= 1
 0 <= x(236)#236 <= 1
 0 <= x(237)#237 <= 1
 0 <= x(238)#238 <= 1
 0 <= x(239)#239 <= 1
 0 <= x(240)#240 <= 1
 0 <= x(241)#241 <= 1
 0 <= x(242)#242 <= 1
 0 <= x(243)#243 <= 1
 0 <= x(244)#244 <= 1
 0 <= x(245)#245 <= 1
 0 <= x(246)#246 <= 1
 0 <= x(247)#247 <= 1
 0 <= x(248)#248 <= 1
 0 <= x(249)#249 <= 1
Generals
 x(0)#0  x(1)#1  x(2)#2  x(3)#3  x(4)#4  x(5)#5  x(6)#6  x(7)#7  x(8)#8 
 x(9)#9  x(10)#10  x(11)#11  x(12)#12  x(13)#13  x(14)#14  x(15)#15  x(16)#16 
 x(17)#17  x(18)#18  x(19)#19  x(20)#20  x(21)#21  x(22)#22  x(23)#23 
 x(24)#24  x(25)#25  x(26)#26  x(27)#27  x(28)#28  x(29)#29  x(30)#30 
 x(31)#31  x(32)#32  x(33)#33  x(34)#34  x(35)#35  x(36)#36  x(37)#37 
 x(38)#38  x(39)#39  x(40)#40  x(41)#41  x(42)#42  x(43)#43  x(44)#44 
 x(45)#45  x(46)#46  x(47)#47  x(48)#48  x(49)#49  x(50)#50  x(51)#51 
 x(52)#52  x(53)#53  x(54)#54  x(55)#55  x(56)#56  x(57)#57  x(58)#58 
 x(59)#59  x(60)#60  x(61)#61  x(62)#62  x(63)#63  x(64)#64  x(65)#65 
 x(66)#66  x(67)#67  x(68)#68  x(69)#69  x(70)#70  x(71)#71  x(72)#72 
 x(73)#73  x(74)#74  x(75)#75  x(76)#76  x(77)#77  x(78)#78  x(79)#79 
 x(80)#80  x(81)#81  x(82)#82  x(83)#83  x(84)#84  x(85)#85  x(86)#86 
 x(87)#87  x(88)#88  x(89)#89  x(90)#90  x(91)#91  x(92)#92  x(93)#93 
 x(94)#94  x(95)#95  x(96)#96  x(97)#97  x(98)#98  x(99)#99  x(100)#100 
 x(101)#101  x(102)#102  x(103)#103  x(104)#104  x(105)#105  x(106)#106 
 x(107)#107  x(108)#108  x(109)#109  x(110)#110  x(111)#111  x(112)#112 
 x(113)#113  x(114)#114  x(115)#115  x(116)#116  x(117)#117  x(118)#118 
 x(119)#119  x(120)#120  x(121)#121  x(122)#122  x(123)#123  x(124)#124 
 x(125)#125  x(126)#126  x(127)#127  x(128)#128  x(129)#129  x(130)#130 
 x(131)#131  x(132)#132  x(133)#133  x(134)#134  x(135)#135  x(136)#136 
 x(137)#137  x(138)#138  x(139)#139  x(140)#140  x(141)#141  x(142)#142 
 x(143)#143  x(144)#144  x(145)#145  x(146)#146  x(147)#147  x(148)#148 
 x(149)#149  x(150)#150  x(151)#151  x(152)#152  x(153)#153  x(154)#154 
 x(155)#155  x(156)#156  x(157)#157  x(158)#158  x(159)#159  x(160)#160 
 x(161)#161  x(162)#162  x(163)#163  x(164)#164  x(165)#165  x(166)#166 
 x(167)#167  x(168)#168  x(169)#169  x(170)#170  x(171)#171  x(172)#172 
 x(173)#173  x(174)#174  x(175)#175  x(176)#176  x(177)#177  x(178)#178 
 x(179)#179  x(180)#180  x(181)#181  x(182)#182  x(183)#183  x(184)#184 
 x(185)#185  x(186)#186  x(187)#187  x(188)#188  x(189)#189  x(190)#190 
 x(191)#191  x(192)#192  x(193)#193  x(194)#194  x(195)#195  x(196)#196 
 x(197)#197  x(198)#198  x(199)#199  x(200)#200  x(201)#201  x(202)#202 
 x(203)#203  x(204)#204  x(205)#205  x(206)#206  x(207)#207  x(208)#208 
 x(209)#209  x(210)#210  x(211)#211  x(212)#212  x(213)#213  x(214)#214 
 x(215)#215  x(216)#216  x(217)#217  x(218)#218  x(219)#219  x(220)#220 
 x(221)#221  x(222)#222  x(223)#223  x(224)#224  x(225)#225  x(226)#226 
 x(227)#227  x(228)#228  x(229)#229  x(230)#230  x(231)#231  x(232)#232 
 x(233)#233  x(234)#234  x(235)#235  x(236)#236  x(237)#237  x(238)#238 
 x(239)#239  x(240)#240  x(241)#241  x(242)#242  x(243)#243  x(244)#244 
 x(245)#245  x(246)#246  x(247)#247  x(248)#248  x(249)#249 
End
